NAME : eilA101.50.831.tour
COMMENT : Length = 831
COMMENT : Found by LKH [Keld Helsgaun] Mon Dec 10 23:16:06 2018
TYPE : TOUR
DIMENSION : 104
TOUR_SECTION
1
29
27
13
69
81
25
55
5
57
23
75
73
74
22
56
26
40
68
24
76
42
16
44
58
88
98
104
7
95
97
93
99
101
85
61
19
83
49
9
47
37
65
50
48
20
12
64
32
8
84
46
18
6
90
102
59
41
3
43
15
45
39
87
17
62
86
92
38
94
100
60
96
14
54
103
53
89
63
11
91
33
67
21
31
71
51
77
79
35
36
66
72
10
52
34
82
80
30
4
78
2
70
28
-1
EOF
